nNurses = 126;
nHours = 26;
minHours = 5;
maxHours = 13;
maxConsec = 13;
maxPresence = 14;
demand = [21, 24, 25, 23, 18, 22, 20, 17, 15, 11, 14, 12, 15, 17, 17, 17, 16, 18, 17, 15, 12, 17, 14, 11, 7, 10];
